Maximize
  Z: 20 x1 + 15 x2 + 25 x3 - 6 y1p - 6 y1m - 3 y2m
Subject To
  emp: 6 x1 + 4 x2 + 5 x3 + y1m - y1p = 50
  earn: 8 x1 + 7 x2 + 5 x3 + y2m - y2p = 75
Bounds
  x1 >= 0
  x2 >= 0
  x3 >= 0
  y1p >= 0
  y1m >= 0
  y2p >= 0
  y2m >= 0
End